solution status: optimal solution found
objective value:                     119731.123765284
d11(0,0)                                            1 	(obj:0)
d11(1,1)                                            1 	(obj:0)
d11(1,2)                                            1 	(obj:0)
d11(2,3)                                            1 	(obj:0)
d11(2,5)                                            1 	(obj:0)
d11(3,7)                                            1 	(obj:0)
d11(3,8)                                            1 	(obj:0)
d11(3,9)                                            1 	(obj:0)
d11(3,10)                                           1 	(obj:0)
d11(3,11)                                           1 	(obj:0)
d11(3,12)                                           1 	(obj:0)
d11(3,13)                                           1 	(obj:0)
d11(3,14)                                           1 	(obj:0)
d12(2,4)                                            1 	(obj:0)
d12(2,6)                                            1 	(obj:0)
d21(3,7)                                            1 	(obj:0)
d21(3,9)                                            1 	(obj:0)
d21(3,11)                                           1 	(obj:0)
WB(2)                                3315.65537776224 	(obj:0)
y2(2,4)                              1385.48851144898 	(obj:0)
y2(2,6)                              1385.48851144898 	(obj:0)
STE(1,1)                             1701.00000000023 	(obj:0)
STE(0,0)                                         4725 	(obj:0)
STE(1,2)                             3359.24989888904 	(obj:0)
STE(2,3)                             1323.00000000029 	(obj:0)
STE(2,4)                             2639.21408587675 	(obj:0)
STE(2,5)                             2981.24989888923 	(obj:0)
STE(2,6)                             4297.46398476557 	(obj:0)
STE(3,7)                            -713.249898888817 	(obj:0)
STE(3,8)                                          945 	(obj:0)
STE(3,9)                             602.964186987644 	(obj:0)
STE(3,10)                            2261.21408587639 	(obj:0)
STE(3,11)                            945.000000000118 	(obj:0)
STE(3,12)                            2603.24989888894 	(obj:0)
STE(3,13)                            2261.21408587646 	(obj:0)
STE(3,14)                            3919.46398476517 	(obj:0)
AVE(2)                               3315.65537776224 	(obj:0)
y1(1,1)                               2381.3999999998 	(obj:0)
y1(1,2)                               888.97509099986 	(obj:0)
y1(3,7)                               1492.4249090002 	(obj:0)
y1(3,9)                               1492.4249090002 	(obj:0)
y1(3,11)                              1492.4249090002 	(obj:0)
y1(3,13)                              1492.4249090002 	(obj:0)
AVE(3)                               3315.65799770399 	(obj:0)
WB(1)                                3248.33172520918 	(obj:0)
WG(3)                                3315.65799770399 	(obj:10)
BG(1)                                5103.40993877534 	(obj:10)
BG(2)                                2673.40993877549 	(obj:10)
BG(3)                                880.634501275845 	(obj:10)
AVE(1)                               3248.33172520918 	(obj:0)
